
******************************************************************************
This program contains Ipopt, a library for large-scale nonlinear optimization.
 Ipopt is released as open source code under the Eclipse Public License (EPL).
         For more information visit http://projects.coin-or.org/Ipopt
******************************************************************************

This is Ipopt version 3.12.4, running with linear solver mumps.
NOTE: Other linear solvers might be more efficient (see Ipopt documentation).

Number of nonzeros in equality constraint Jacobian...:       39
Number of nonzeros in inequality constraint Jacobian.:      195
Number of nonzeros in Lagrangian Hessian.............:        0

Total number of variables............................:       39
                     variables with only lower bounds:        0
                variables with lower and upper bounds:       39
                     variables with only upper bounds:        0
Total number of equality constraints.................:        1
Total number of inequality constraints...............:       80
        inequality constraints with only lower bounds:        0
   inequality constraints with lower and upper bounds:       80
        inequality constraints with only upper bounds:        0

iter    objective    inf_pr   inf_du lg(mu)  ||d||  lg(rg) alpha_du alpha_pr  ls
   0 -1.9559836e-03 9.75e-19 2.92e-03   0.0 0.00e+00    -  0.00e+00 0.00e+00   0
   1 -1.9935446e-03 1.82e-18 7.45e-05  -6.6 6.02e-04    -  9.89e-01 1.00e+00f  1
   2 -4.9855767e-03 2.00e-19 2.52e-03  -4.6 3.71e-02    -  9.37e-01 1.00e+00f  1
   3 -3.1589186e-02 1.00e-18 1.04e-02  -4.5 1.60e-01    -  9.95e-01 1.00e+00f  1
   4 -6.1578561e-02 9.91e-19 1.37e-02  -4.5 5.26e-01    -  1.00e+00 2.66e-01f  1
   5 -8.1830674e-02 4.22e-19 1.08e-02  -3.9 5.27e-01    -  1.00e+00 1.88e-01f  1
   6 -9.6905826e-02 8.11e-18 4.72e-03  -3.6 2.47e-01    -  1.00e+00 3.95e-01f  1
   7 -1.0329009e-01 6.19e-18 1.43e-03  -3.9 7.72e-02    -  9.97e-01 6.76e-01f  1
   8 -1.0631697e-01 6.85e-18 5.08e-04  -4.4 3.78e-02    -  9.95e-01 6.01e-01f  1
